258249258246825582198228821982197319582288219582194682186731946821685821946821867319731891469146837166734591559128914691469119914691469158372673467319821973459149371956446641964466419641929416911983716673458371683719371964556456455648348264564294294283726737913492794381643737919438191918345564294294556456483456464373826729194646191927627628466446914691546